0
Node Left Objective IInf Best_Integer Best_Bound ItCnt Gap
0 0 43.0201 6 43.0201 54
0 0 43.6137 9 Fract:6 69
0 0 45.0848 9 Fract:9 81
0+ 0 nan nan 52.9813 45.0848 nan 14.90%
0 0 45.8174 9 52.9813 Fract:9 91 13.52%
0 0 46.4485 9 52.9813 Fract:5 104 12.33%
0 0 46.6894 9 52.9813 Fract:6 114 11.88%
0 0 46.7150 9 52.9813 Fract:2 118 11.83%
0+ 0 nan nan 52.9813 46.7150 nan 11.83%
0 0 48.0586 5 52.9813 48.0586 183 9.29%
0 0 48.1764 4 52.9813 Fract:2 189 9.07%
0 1 52.7023 1 52.9813 52.9813 208 0.00%
CPXPARAM_MIP_Cuts_Gomory-Covers-FlowCovers:Gomory 0
CPXPARAM_MIP_Cuts_Gomory-Covers-FlowCovers:Covers 0
CPXPARAM_MIP_Cuts_Gomory-Covers-FlowCovers:FlowCovers 4
1
Node Left Objective IInf Best_Integer Best_Bound ItCnt Gap
0 0 2.5600 6 2.5600 61
0 0 2.8111 7 Cuts:7 74
0 0 3.4280 9 Cuts:7 87
0+ 0 nan nan 11.3251 3.4280 nan 69.73%
0 0 3.6609 9 11.3251 Fract:7 104 67.67%
0 0 3.7083 8 11.3251 Fract:8 117 67.26%
0 0 3.7226 8 11.3251 Fract:3 121 67.13%
0 2 3.7554 7 11.3251 3.8319 121 66.16%
CPXPARAM_MIP_Cuts_Gomory-Covers-FlowCovers:Gomory 0
CPXPARAM_MIP_Cuts_Gomory-Covers-FlowCovers:Covers 0
CPXPARAM_MIP_Cuts_Gomory-Covers-FlowCovers:FlowCovers 9
2
Node Left Objective IInf Best_Integer Best_Bound ItCnt Gap
0 0 40.5363 2 40.5363 49
0 0 40.5363 2 Cuts:2 51
0 0 40.5363 2 Fract:2 53
0+ 0 nan nan 40.6800 40.5363 nan 0.35%
0+ 0 nan nan 40.6800 40.5363 nan 0.35%
0 0 40.5363 2 40.6800 40.5363 103 0.35%
0 0 40.5363 2 40.6800 Fract:1 107 0.35%
0 0 40.5363 2 40.6800 Fract:1 109 0.35%
0 2 40.6077 4 40.6800 40.6081 109 0.18%
CPXPARAM_MIP_Cuts_Gomory-Covers-FlowCovers:Gomory 0
CPXPARAM_MIP_Cuts_Gomory-Covers-FlowCovers:Covers 0
CPXPARAM_MIP_Cuts_Gomory-Covers-FlowCovers:FlowCovers 5
3
Node Left Objective IInf Best_Integer Best_Bound ItCnt Gap
0 0 6.4123 1 6.4123 41
0+ 0 nan nan 6.4123 6.4123 nan 0.00%
0 0 cutoff 6.4123 6.4123 41 0.00% 0
CPXPARAM_MIP_Cuts_Gomory-Covers-FlowCovers:Gomory 0
CPXPARAM_MIP_Cuts_Gomory-Covers-FlowCovers:Covers 0
CPXPARAM_MIP_Cuts_Gomory-Covers-FlowCovers:FlowCovers 0
4
Node Left Objective IInf Best_Integer Best_Bound ItCnt Gap
0 0 50.7422 6 50.7422 57
0 0 50.7422 6 Fract:3 63
0 0 51.1345 9 Cuts:5 72
0+ 0 nan nan 54.5576 51.1345 nan 6.27%
0+ 0 nan nan 54.5576 51.1345 nan 6.27%
0 0 51.1345 9 54.5576 51.1345 144 6.27%
0 0 51.6063 8 54.5576 Fract:7 156 5.41%
0 0 51.6712 9 54.5576 Fract:7 166 5.29%
0 0 51.6860 8 54.5576 Fract:1 172 5.26%
0 0 51.7137 9 54.5576 Fract:6 179 5.21%
0 2 51.8432 6 54.5576 51.8897 179 4.89%
CPXPARAM_MIP_Cuts_Gomory-Covers-FlowCovers:Gomory 0
CPXPARAM_MIP_Cuts_Gomory-Covers-FlowCovers:Covers 0
CPXPARAM_MIP_Cuts_Gomory-Covers-FlowCovers:FlowCovers 9
5
Node Left Objective IInf Best_Integer Best_Bound ItCnt Gap
0 0 2.3864 6 2.3864 56
0 0 2.4301 9 Cuts:5 66
0 0 3.0480 9 Cuts:5 78
0 0 3.3174 9 Cuts:6 89
0 0 3.4327 9 Fract:3 95
0 0 3.7201 8 Fract:2 103
0 0 3.7790 8 Fract:1 109
0 2 3.9485 8 3.9673 109 0 0
CPXPARAM_MIP_Cuts_Gomory-Covers-FlowCovers:Gomory 0
CPXPARAM_MIP_Cuts_Gomory-Covers-FlowCovers:Covers 0
CPXPARAM_MIP_Cuts_Gomory-Covers-FlowCovers:FlowCovers 7
6
Node Left Objective IInf Best_Integer Best_Bound ItCnt Gap
0+ 0 nan nan 698.6785 -80.3724 nan 111.50%
0 0 49.1770 2 698.6785 49.1770 57 92.96%
0+ 0 nan nan 49.2390 49.1770 nan 0.13%
0+ 0 nan nan 49.2390 49.1770 nan 0.13%
0 0 49.1770 2 49.2390 49.1770 114 0.13%
0 1 49.1770 2 49.2390 49.1770 119 0.13%
CPXPARAM_MIP_Cuts_Gomory-Covers-FlowCovers:Gomory 0
CPXPARAM_MIP_Cuts_Gomory-Covers-FlowCovers:Covers 0
CPXPARAM_MIP_Cuts_Gomory-Covers-FlowCovers:FlowCovers 0
7
Node Left Objective IInf Best_Integer Best_Bound ItCnt Gap
0 0 7.4387 2 7.4387 48
0+ 0 nan nan 9.7351 7.4387 nan 23.59%
0 0 7.4387 2 9.7351 Cuts:3 53 23.59%
0 0 7.4387 2 9.7351 Fract:2 55 23.59%
0 2 7.4387 2 9.7351 7.4387 55 23.59%
CPXPARAM_MIP_Cuts_Gomory-Covers-FlowCovers:Gomory 0
CPXPARAM_MIP_Cuts_Gomory-Covers-FlowCovers:Covers 0
CPXPARAM_MIP_Cuts_Gomory-Covers-FlowCovers:FlowCovers 4
8
Node Left Objective IInf Best_Integer Best_Bound ItCnt Gap
0 0 65.7942 6 65.7942 62
0 0 65.8123 9 Cuts:7 74
0 0 65.8489 9 Cuts:9 83
0+ 0 nan nan 70.7889 65.8489 nan 6.98%
0 0 65.8567 9 70.7889 Fract:2 86 6.97%
0 0 65.8730 8 70.7889 Fract:3 90 6.94%
0 0 65.9079 9 70.7889 Fract:2 102 6.90%
0+ 0 nan nan 67.9165 65.9079 nan 2.96%
0+ 0 nan nan 67.9165 65.9079 nan 2.96%
0 0 65.9079 9 67.9165 65.9079 178 2.96%
0 2 66.0214 6 67.9165 66.0515 179 2.75%
CPXPARAM_MIP_Cuts_Gomory-Covers-FlowCovers:Gomory 0
CPXPARAM_MIP_Cuts_Gomory-Covers-FlowCovers:Covers 0
CPXPARAM_MIP_Cuts_Gomory-Covers-FlowCovers:FlowCovers 4
9
Node Left Objective IInf Best_Integer Best_Bound ItCnt Gap
0 0 11.8594 6 11.8594 54
0 0 13.3115 8 Cuts:8 69
0 0 13.6643 9 Fract:7 79
0 0 13.8214 9 Cuts:4 89
0 0 14.3271 9 Cuts:4 104
0 0 14.8349 9 Cuts:10 118
0 0 14.8555 9 Covers:1 121
0 0 14.9030 9 Fract:1 124
0 2 14.9030 9 15.1028 124 0 0
CPXPARAM_MIP_Cuts_Gomory-Covers-FlowCovers:Gomory 1
CPXPARAM_MIP_Cuts_Gomory-Covers-FlowCovers:Covers 0
CPXPARAM_MIP_Cuts_Gomory-Covers-FlowCovers:FlowCovers 9
10
Node Left Objective IInf Best_Integer Best_Bound ItCnt Gap
0 0 60.5073 2 60.5073 52
0 0 60.5073 2 Cuts:3 56
0 0 60.5073 2 Fract:2 58
0+ 0 nan nan 60.5115 60.5073 nan 0.01%
CPXPARAM_MIP_Cuts_Gomory-Covers-FlowCovers:Gomory 0
CPXPARAM_MIP_Cuts_Gomory-Covers-FlowCovers:Covers 0
CPXPARAM_MIP_Cuts_Gomory-Covers-FlowCovers:FlowCovers 4
11
Node Left Objective IInf Best_Integer Best_Bound ItCnt Gap
0 0 16.6537 2 16.6537 50
0 0 16.6537 2 Fract:1 52
0 0 16.6537 2 Fract:2 54
0+ 0 nan nan 16.6575 16.6537 nan 0.02%
0+ 0 nan nan 16.6575 16.6537 nan 0.02%
0 0 16.6537 2 16.6575 16.6537 111 0.02%
0 0 cutoff 16.6575 119 0.00% 0 0
CPXPARAM_MIP_Cuts_Gomory-Covers-FlowCovers:Gomory 0
CPXPARAM_MIP_Cuts_Gomory-Covers-FlowCovers:Covers 0
CPXPARAM_MIP_Cuts_Gomory-Covers-FlowCovers:FlowCovers 2
12
Node Left Objective IInf Best_Integer Best_Bound ItCnt Gap
0 0 44.2061 6 44.2061 61
0 0 45.1226 9 Fract:6 75
0 0 46.1464 9 Fract:5 83
0 0 46.6681 9 Fract:6 92
0 0 47.3388 9 Cuts:10 101
0+ 0 nan nan 60.4175 47.3388 nan 21.65%
0 0 47.7447 9 60.4175 Fract:6 112 20.98%
0 2 47.8145 8 60.4175 48.0892 112 20.41%
CPXPARAM_MIP_Cuts_Gomory-Covers-FlowCovers:Gomory 0
CPXPARAM_MIP_Cuts_Gomory-Covers-FlowCovers:Covers 0
CPXPARAM_MIP_Cuts_Gomory-Covers-FlowCovers:FlowCovers 8
13
Node Left Objective IInf Best_Integer Best_Bound ItCnt Gap
0 0 10.2945 6 10.2945 57
0+ 0 nan nan 16.4316 10.2945 nan 37.35%
0 0 10.3611 9 16.4316 Cuts:6 68 36.94%
0 0 10.7902 9 16.4316 Fract:6 75 34.33%
0 0 11.0144 9 16.4316 Fract:5 83 32.97%
0 0 11.0838 9 16.4316 Fract:4 88 32.55%
0 0 11.1262 9 16.4316 Fract:2 90 32.29%
0 2 11.1402 7 16.4316 11.1600 90 32.08%
CPXPARAM_MIP_Cuts_Gomory-Covers-FlowCovers:Gomory 0
CPXPARAM_MIP_Cuts_Gomory-Covers-FlowCovers:Covers 0
CPXPARAM_MIP_Cuts_Gomory-Covers-FlowCovers:FlowCovers 9
14
Node Left Objective IInf Best_Integer Best_Bound ItCnt Gap
0 0 46.5469 2 46.5469 53
0+ 0 nan nan 47.4290 46.5469 nan 1.86%
0 0 46.5469 2 47.4290 Fract:1 57 1.86%
0 0 46.5469 2 47.4290 Fract:2 59 1.86%
0+ 0 nan nan 47.4290 46.5469 nan 1.86%
0 0 46.5469 2 47.4290 46.5469 108 1.86%
0 0 46.5469 2 47.4290 Fract:1 114 1.86%
0 2 46.6303 4 47.4290 46.7670 114 1.40%
CPXPARAM_MIP_Cuts_Gomory-Covers-FlowCovers:Gomory 0
CPXPARAM_MIP_Cuts_Gomory-Covers-FlowCovers:Covers 0
CPXPARAM_MIP_Cuts_Gomory-Covers-FlowCovers:FlowCovers 4
15
Node Left Objective IInf Best_Integer Best_Bound ItCnt Gap
0+ 0 nan nan 754.6210 -94.3684 nan 112.51%
0 0 10.7585 2 754.6210 10.7585 50 98.57%
0 0 10.7585 2 754.6210 Fract:1 52 98.57%
0 0 10.7585 2 754.6210 Fract:2 54 98.57%
0 2 10.7585 2 754.6210 10.7585 54 98.57%
CPXPARAM_MIP_Cuts_Gomory-Covers-FlowCovers:Gomory 0
CPXPARAM_MIP_Cuts_Gomory-Covers-FlowCovers:Covers 0
CPXPARAM_MIP_Cuts_Gomory-Covers-FlowCovers:FlowCovers 3
16
Node Left Objective IInf Best_Integer Best_Bound ItCnt Gap
0 0 58.8715 6 58.8715 57
0 0 59.5405 8 Fract:6 69
0 0 60.4081 9 Cuts:8 73
0+ 0 nan nan 61.8856 60.4081 nan 2.39%
0+ 0 nan nan 61.8856 60.4081 nan 2.39%
0 0 60.4081 9 61.8856 60.4081 140 2.39%
0 0 60.7696 8 61.8856 Fract:8 149 1.80%
0 0 60.8725 8 61.8856 Fract:4 157 1.64%
0 0 60.9664 8 61.8856 Fract:4 162 1.49%
0 0 cutoff 61.8856 60.9664 162 1.49% 0
CPXPARAM_MIP_Cuts_Gomory-Covers-FlowCovers:Gomory 0
CPXPARAM_MIP_Cuts_Gomory-Covers-FlowCovers:Covers 0
CPXPARAM_MIP_Cuts_Gomory-Covers-FlowCovers:FlowCovers 6
17
Node Left Objective IInf Best_Integer Best_Bound ItCnt Gap
0 0 10.2675 6 10.2675 65
0 0 10.4347 8 Fract:6 76
0 0 11.1842 9 Cuts:10 89
0+ 0 nan nan 21.7788 11.1842 nan 48.65%
0 0 11.8548 9 21.7788 Cuts:8 103 45.57%
0 0 12.0683 8 21.7788 Fract:8 112 44.59%
0 0 12.1066 9 21.7788 Fract:5 117 44.41%
0 0 12.1244 9 21.7788 Fract:1 121 44.33%
0 2 12.1582 7 21.7788 12.2442 121 43.78%
CPXPARAM_MIP_Cuts_Gomory-Covers-FlowCovers:Gomory 0
CPXPARAM_MIP_Cuts_Gomory-Covers-FlowCovers:Covers 0
CPXPARAM_MIP_Cuts_Gomory-Covers-FlowCovers:FlowCovers 9
18
Node Left Objective IInf Best_Integer Best_Bound ItCnt Gap
0+ 0 nan nan 850.5680 -92.8051 nan 110.91%
0 0 58.3813 2 850.5680 58.3813 51 93.14%
0 0 58.3813 2 850.5680 Fract:2 55 93.14%
0+ 0 nan nan 58.4112 58.3813 nan 0.05%
0+ 0 nan nan 58.4112 58.3813 nan 0.05%
0 0 58.3813 2 58.4112 58.3813 111 0.05%
0 0 58.3942 2 58.4112 58.4112 117 0.00%
CPXPARAM_MIP_Cuts_Gomory-Covers-FlowCovers:Gomory 0
CPXPARAM_MIP_Cuts_Gomory-Covers-FlowCovers:Covers 0
CPXPARAM_MIP_Cuts_Gomory-Covers-FlowCovers:FlowCovers 2
19
Node Left Objective IInf Best_Integer Best_Bound ItCnt Gap
0+ 0 nan nan 682.2187 -97.6235 nan 114.31%
0 0 15.5882 2 682.2187 15.5882 47 97.72%
0+ 0 nan nan 15.6606 15.5882 nan 0.46%
0+ 0 nan nan 15.6606 15.5882 nan 0.46%
0 0 15.5882 2 15.6606 15.5882 89 0.46%
0 1 15.5882 2 15.6606 15.5882 94 0.46%
CPXPARAM_MIP_Cuts_Gomory-Covers-FlowCovers:Gomory 0
CPXPARAM_MIP_Cuts_Gomory-Covers-FlowCovers:Covers 0
CPXPARAM_MIP_Cuts_Gomory-Covers-FlowCovers:FlowCovers 0
20
Node Left Objective IInf Best_Integer Best_Bound ItCnt Gap
0 0 31.6179 6 31.6179 61
0 0 31.6334 7 Cuts:7 73
0 0 32.7384 9 Cuts:6 83
0+ 0 nan nan 34.4860 32.7384 nan 5.07%
0+ 0 nan nan 34.4860 32.7384 nan 5.07%
0 0 32.7384 9 34.4860 32.7384 151 5.07%
0 0 32.9649 8 34.4860 Fract:5 154 4.41%
0 0 33.2534 8 34.4860 Fract:6 163 3.57%
0 0 33.4126 8 34.4860 Cuts:8 170 3.11%
0 0 cutoff 34.4860 33.4126 170 3.11% 0
CPXPARAM_MIP_Cuts_Gomory-Covers-FlowCovers:Gomory 0
CPXPARAM_MIP_Cuts_Gomory-Covers-FlowCovers:Covers 1
CPXPARAM_MIP_Cuts_Gomory-Covers-FlowCovers:FlowCovers 7
21
Node Left Objective IInf Best_Integer Best_Bound ItCnt Gap
0 0 5.4416 6 5.4416 61
0 0 5.5367 9 Cuts:6 75
0 0 6.1121 9 Cuts:7 91
0+ 0 nan nan 9.1778 6.1121 nan 33.40%
0 0 6.7824 9 9.1778 Fract:7 103 26.10%
0 0 7.0740 8 9.1778 Cuts:9 119 22.92%
0 0 7.1231 8 9.1778 Fract:6 127 22.39%
0 0 cutoff 9.1778 7.1231 127 22.39% 0
CPXPARAM_MIP_Cuts_Gomory-Covers-FlowCovers:Gomory 0
CPXPARAM_MIP_Cuts_Gomory-Covers-FlowCovers:Covers 0
CPXPARAM_MIP_Cuts_Gomory-Covers-FlowCovers:FlowCovers 9
22
Node Left Objective IInf Best_Integer Best_Bound ItCnt Gap
0 0 28.4414 2 28.4414 42
0+ 0 nan nan 28.5540 28.4414 nan 0.39%
0 0 28.4414 2 28.5540 Fract:1 46 0.39%
0 0 28.4414 2 28.5540 Fract:2 48 0.39%
0+ 0 nan nan 28.5540 28.4414 nan 0.39%
0 0 28.4414 2 28.5540 28.4414 89 0.39%
0 0 28.4414 2 28.5540 Fract:2 93 0.39%
0 0 28.4414 2 28.5540 Fract:2 95 0.39%
0 2 28.4458 5 28.5540 28.4464 95 0.38%
CPXPARAM_MIP_Cuts_Gomory-Covers-FlowCovers:Gomory 0
CPXPARAM_MIP_Cuts_Gomory-Covers-FlowCovers:Covers 0
CPXPARAM_MIP_Cuts_Gomory-Covers-FlowCovers:FlowCovers 7
23
Node Left Objective IInf Best_Integer Best_Bound ItCnt Gap
0 0 3.9556 2 3.9556 52
0 0 3.9556 2 Cuts:3 57
0 0 3.9556 2 Fract:2 59
0+ 0 nan nan 4.0841 3.9556 nan 3.15%
0+ 0 nan nan 4.0841 3.9556 nan 3.15%
0 0 3.9556 2 4.0841 3.9556 112 3.15%
0 0 4.0096 4 4.0841 Cuts:3 117 1.82%
0 0 cutoff 4.0841 128 0.00% 0 0
CPXPARAM_MIP_Cuts_Gomory-Covers-FlowCovers:Gomory 0
CPXPARAM_MIP_Cuts_Gomory-Covers-FlowCovers:Covers 0
CPXPARAM_MIP_Cuts_Gomory-Covers-FlowCovers:FlowCovers 5
24
Node Left Objective IInf Best_Integer Best_Bound ItCnt Gap
0 0 34.8025 6 34.8025 60
0+ 0 nan nan 38.6713 34.8025 nan 10.00%
0 0 34.8025 6 38.6713 Fract:3 66 10.00%
0 0 35.2483 9 38.6713 Fract:5 80 8.85%
0+ 0 nan nan 38.6713 35.2483 nan 8.85%
0 0 35.2483 9 38.6713 35.2483 150 8.85%
0 0 35.8260 9 38.6713 Fract:9 160 7.36%
0 0 36.0464 8 38.6713 Fract:6 168 6.79%
0 0 36.2924 7 38.6713 Fract:5 179 6.15%
0 0 36.3253 8 38.6713 Fract:3 181 6.07%
0 0 cutoff 38.6713 36.3253 181 6.07% 0
CPXPARAM_MIP_Cuts_Gomory-Covers-FlowCovers:Gomory 0
CPXPARAM_MIP_Cuts_Gomory-Covers-FlowCovers:Covers 0
CPXPARAM_MIP_Cuts_Gomory-Covers-FlowCovers:FlowCovers 8
25
Node Left Objective IInf Best_Integer Best_Bound ItCnt Gap
0 0 0.4196 6 0.4196 63
0 0 0.5255 9 Cuts:6 76
0 0 1.0416 9 Cuts:6 89
0+ 0 nan nan 7.4242 1.0416 nan 85.97%
0 0 1.2135 9 7.4242 Fract:10 96 83.65%
0 0 1.4557 9 7.4242 Fract:5 103 80.39%
0 0 1.5208 9 7.4242 Fract:3 111 79.52%
0 2 1.5337 6 7.4242 1.5462 111 79.17%
CPXPARAM_MIP_Cuts_Gomory-Covers-FlowCovers:Gomory 0
CPXPARAM_MIP_Cuts_Gomory-Covers-FlowCovers:Covers 0
CPXPARAM_MIP_Cuts_Gomory-Covers-FlowCovers:FlowCovers 9
26
Node Left Objective IInf Best_Integer Best_Bound ItCnt Gap
0 0 integral 0 36.9182 36.9182 54 0.00%
CPXPARAM_MIP_Cuts_Gomory-Covers-FlowCovers:Gomory 0
CPXPARAM_MIP_Cuts_Gomory-Covers-FlowCovers:Covers 0
CPXPARAM_MIP_Cuts_Gomory-Covers-FlowCovers:FlowCovers 0
27
Node Left Objective IInf Best_Integer Best_Bound ItCnt Gap
0 0 4.5323 2 4.5323 44
0+ 0 nan nan 4.5514 4.5323 nan 0.42%
0 0 4.5323 2 4.5514 Fract:1 48 0.42%
0+ 0 nan nan 4.5514 4.5323 nan 0.42%
0 0 4.5323 2 4.5514 4.5323 100 0.42%
0 0 4.5323 2 4.5514 Fract:1 104 0.42%
0 1 4.5342 3 4.5514 4.5364 106 0.33%
CPXPARAM_MIP_Cuts_Gomory-Covers-FlowCovers:Gomory 0
CPXPARAM_MIP_Cuts_Gomory-Covers-FlowCovers:Covers 0
CPXPARAM_MIP_Cuts_Gomory-Covers-FlowCovers:FlowCovers 2
28
Node Left Objective IInf Best_Integer Best_Bound ItCnt Gap
0 0 63.6500 6 63.6500 54
0 0 64.0189 9 Cuts:6 65
0 0 65.3938 9 Cuts:9 82
0+ 0 nan nan 74.1734 65.3938 nan 11.84%
0+ 0 nan nan 74.1734 65.3938 nan 11.84%
0 0 65.3938 9 74.1734 65.3938 142 11.84%
0 0 65.8887 9 74.1734 Fract:5 150 11.17%
0 0 66.1061 9 74.1734 Fract:9 161 10.88%
0 0 66.2576 9 74.1734 Fract:6 168 10.67%
0 0 cutoff 74.1734 66.2576 168 10.67% 0
CPXPARAM_MIP_Cuts_Gomory-Covers-FlowCovers:Gomory 0
CPXPARAM_MIP_Cuts_Gomory-Covers-FlowCovers:Covers 0
CPXPARAM_MIP_Cuts_Gomory-Covers-FlowCovers:FlowCovers 10
29
Node Left Objective IInf Best_Integer Best_Bound ItCnt Gap
0+ 0 nan nan 994.8986 -114.3356 nan 111.49%
0+ 0 nan nan 37.2949 -114.3356 nan 406.57%
0 0 6.3884 6 37.2949 6.3884 54 82.87%
0 0 6.8576 9 37.2949 Fract:6 69 81.61%
0 0 7.5623 9 37.2949 Cuts:8 83 79.72%
0 0 7.8110 9 37.2949 Fract:4 90 79.06%
0 0 7.9490 9 37.2949 Fract:7 95 78.69%
0 0 8.1242 9 37.2949 Fract:4 105 78.22%
0 0 8.1695 8 37.2949 Fract:2 108 78.09%
0+ 0 nan nan 16.1240 8.1695 nan 49.33%
0 2 8.6217 6 16.1240 8.8838 108 44.90%
CPXPARAM_MIP_Cuts_Gomory-Covers-FlowCovers:Gomory 0
CPXPARAM_MIP_Cuts_Gomory-Covers-FlowCovers:Covers 0
CPXPARAM_MIP_Cuts_Gomory-Covers-FlowCovers:FlowCovers 9
30
Node Left Objective IInf Best_Integer Best_Bound ItCnt Gap
0+ 0 nan nan 514.4143 -106.7235 nan 120.75%
0+ 0 nan nan 83.5731 -106.7235 nan 227.70%
0 0 69.0899 2 83.5731 69.0899 47 17.33%
0 0 69.0899 2 83.5731 Cuts:3 52 17.33%
0 0 69.0899 2 83.5731 Fract:1 54 17.33%
0 2 69.0899 2 83.5731 69.0899 54 17.33%
CPXPARAM_MIP_Cuts_Gomory-Covers-FlowCovers:Gomory 0
CPXPARAM_MIP_Cuts_Gomory-Covers-FlowCovers:Covers 0
CPXPARAM_MIP_Cuts_Gomory-Covers-FlowCovers:FlowCovers 3
31
Node Left Objective IInf Best_Integer Best_Bound ItCnt Gap
0 0 7.6579 2 7.6579 41
0+ 0 nan nan 8.0780 7.6579 nan 5.20%
0 0 7.6579 2 8.0780 Fract:1 43 5.20%
0 0 7.6579 2 8.0780 Fract:2 45 5.20%
0+ 0 nan nan 8.0780 7.6579 nan 5.20%
0 0 7.6579 2 8.0780 7.6579 93 5.20%
0 0 7.6579 2 8.0780 Fract:1 97 5.20%
0 0 7.6579 2 8.0780 Fract:2 99 5.20%
0 2 7.6716 4 8.0780 7.6773 99 4.96%
CPXPARAM_MIP_Cuts_Gomory-Covers-FlowCovers:Gomory 0
CPXPARAM_MIP_Cuts_Gomory-Covers-FlowCovers:Covers 0
CPXPARAM_MIP_Cuts_Gomory-Covers-FlowCovers:FlowCovers 6
32
Node Left Objective IInf Best_Integer Best_Bound ItCnt Gap
0 0 46.2013 6 46.2013 60
0 0 46.2178 7 Cuts:6 72
0 0 46.3654 9 Cuts:5 78
0 0 46.6155 8 Cuts:6 87
0+ 0 nan nan 49.3481 46.6155 nan 5.54%
0+ 0 nan nan 49.3481 46.6155 nan 5.54%
0 0 46.6155 8 49.3481 46.6155 156 5.54%
0 0 46.6321 8 49.3481 Fract:3 160 5.50%
0 0 46.6811 8 49.3481 Fract:5 167 5.40%
0 1 47.1115 6 49.3481 47.1579 167 4.44%
CPXPARAM_MIP_Cuts_Gomory-Covers-FlowCovers:Gomory 0
CPXPARAM_MIP_Cuts_Gomory-Covers-FlowCovers:Covers 0
CPXPARAM_MIP_Cuts_Gomory-Covers-FlowCovers:FlowCovers 7
33
Node Left Objective IInf Best_Integer Best_Bound ItCnt Gap
0 0 0.8948 6 0.8948 57
0 0 1.3703 9 Fract:6 69
0 0 2.1510 9 Fract:7 77
0 0 2.9626 9 Cuts:7 84
0 0 3.1399 8 Fract:4 88
0 0 4.4778 9 Cuts:9 102
0 0 5.2458 9 Cuts:5 113
0 0 5.8059 9 Cuts:2 118
0 0 6.2283 9 Cuts:8 126
0 0 6.9122 8 Fract:3 133
0 0 6.9389 9 Cuts:3 137
0+ 0 nan nan 11.6907 6.9389 nan 40.65%
0 0 cutoff 11.6907 6.9389 137 40.65% 0
CPXPARAM_MIP_Cuts_Gomory-Covers-FlowCovers:Gomory 0
CPXPARAM_MIP_Cuts_Gomory-Covers-FlowCovers:Covers 1
CPXPARAM_MIP_Cuts_Gomory-Covers-FlowCovers:FlowCovers 10
34
Node Left Objective IInf Best_Integer Best_Bound ItCnt Gap
0 0 41.8656 2 41.8656 44
0 0 41.8656 2 Cuts:3 48
0 0 41.8656 2 Fract:2 50
0+ 0 nan nan 41.9255 41.8656 nan 0.14%
0+ 0 nan nan 41.9255 41.8656 nan 0.14%
0 0 41.8914 1 41.9255 41.8914 98 0.08%
0 0 cutoff 41.9255 104 0.00% 0 0
CPXPARAM_MIP_Cuts_Gomory-Covers-FlowCovers:Gomory 0
CPXPARAM_MIP_Cuts_Gomory-Covers-FlowCovers:Covers 0
CPXPARAM_MIP_Cuts_Gomory-Covers-FlowCovers:FlowCovers 4
35
Node Left Objective IInf Best_Integer Best_Bound ItCnt Gap
0 0 10.6421 2 10.6421 45
0 0 10.6421 2 Cuts:3 49
0 0 10.6421 2 Fract:2 51
0+ 0 nan nan 10.9052 10.6421 nan 2.41%
0+ 0 nan nan 10.9052 10.6421 nan 2.41%
0 0 10.6421 2 10.9052 10.6421 99 2.41%
0 0 10.8176 3 10.9052 Fract:2 104 0.80%
0 0 cutoff 10.9052 104 0.00% 0 0
CPXPARAM_MIP_Cuts_Gomory-Covers-FlowCovers:Gomory 0
CPXPARAM_MIP_Cuts_Gomory-Covers-FlowCovers:Covers 0
CPXPARAM_MIP_Cuts_Gomory-Covers-FlowCovers:FlowCovers 4
36
Node Left Objective IInf Best_Integer Best_Bound ItCnt Gap
0 0 48.4886 6 48.4886 59
0 0 48.5185 8 Fract:4 68
0 0 49.1550 6 Cuts:10 75
0+ 0 nan nan 52.9256 49.1550 nan 7.12%
0+ 0 nan nan 52.9256 49.1550 nan 7.12%
0 0 49.1550 6 52.9256 49.1550 146 7.12%
0 0 49.4263 9 52.9256 Fract:6 156 6.61%
0 0 49.7626 8 52.9256 Fract:6 163 5.98%
0 0 49.8891 8 52.9256 Fract:3 169 5.74%
0 0 49.9073 8 52.9256 Fract:3 173 5.70%
0 0 49.9439 8 52.9256 Fract:2 176 5.63%
0 0 49.9868 8 52.9256 Cuts:3 181 5.55%
0 0 cutoff 52.9256 49.9868 181 5.55% 0
CPXPARAM_MIP_Cuts_Gomory-Covers-FlowCovers:Gomory 0
CPXPARAM_MIP_Cuts_Gomory-Covers-FlowCovers:Covers 1
CPXPARAM_MIP_Cuts_Gomory-Covers-FlowCovers:FlowCovers 7
37
Node Left Objective IInf Best_Integer Best_Bound ItCnt Gap
0 0 -6.1266 6 -6.1266 62
0 0 -5.3607 9 Cuts:7 77
0 0 -4.4859 9 Fract:7 85
0 0 -4.1552 9 Cuts:9 97
0 0 -3.7792 9 Fract:4 104
0 0 -3.5525 9 Fract:2 112
0 2 -3.5221 8 -3.4401 112 0 0
CPXPARAM_MIP_Cuts_Gomory-Covers-FlowCovers:Gomory 0
CPXPARAM_MIP_Cuts_Gomory-Covers-FlowCovers:Covers 0
CPXPARAM_MIP_Cuts_Gomory-Covers-FlowCovers:FlowCovers 9
38
Node Left Objective IInf Best_Integer Best_Bound ItCnt Gap
0 0 47.4773 2 47.4773 45
0+ 0 nan nan 47.5785 47.4773 nan 0.21%
0+ 0 nan nan 47.5785 47.4773 nan 0.21%
0 0 47.4773 2 47.5785 47.4773 92 0.21%
0 0 47.4773 2 47.5785 Fract:1 96 0.21%
0 0 47.4941 2 47.5785 47.5785 98 0.00%
CPXPARAM_MIP_Cuts_Gomory-Covers-FlowCovers:Gomory 0
CPXPARAM_MIP_Cuts_Gomory-Covers-FlowCovers:Covers 0
CPXPARAM_MIP_Cuts_Gomory-Covers-FlowCovers:FlowCovers 1
39
Node Left Objective IInf Best_Integer Best_Bound ItCnt Gap
0 0 7.0905 2 7.0905 43
0 0 7.0905 2 Fract:1 45
0 0 7.0905 2 Cuts:3 47
0+ 0 nan nan 7.1260 7.0905 nan 0.50%
0+ 0 nan nan 7.1260 7.0905 nan 0.50%
0 0 7.0905 2 7.1260 7.0905 93 0.50%
0 0 cutoff 7.1260 102 0.00% 0 0
CPXPARAM_MIP_Cuts_Gomory-Covers-FlowCovers:Gomory 1
CPXPARAM_MIP_Cuts_Gomory-Covers-FlowCovers:Covers 0
CPXPARAM_MIP_Cuts_Gomory-Covers-FlowCovers:FlowCovers 4
